5
5
0 770 131 692 384 
770 0 646 810 681 
131 646 0 692 383 
692 810 692 0 310 
384 681 383 310 0 
0 270 818 305 509 
270 0 566 53 570 
818 566 0 559 1077 
305 53 559 0 548 
509 570 1077 548 0 
0 437 393 202 507 
437 0 359 519 91 
393 359 0 309 449 
202 519 309 0 605 
507 91 449 605 0 
0 587 304 205 263 
587 0 633 605 794 
304 633 0 508 244 
205 605 508 0 442 
263 794 244 442 0 
0 303 803 839 635 
303 0 579 685 608 
803 579 0 226 476 
839 685 226 0 332 
635 608 476 332 0 
